NAME: a280
COMMENT: Tabu Search - tabusSize: 0.3 - neighborSize: 3
DIMENSION: 280
DISTANCE: 2678.0
EXECUTION_TIME: 600.357
TOUR_SOLUTION: 
230 251 250 249 248 247 245 246 231 232 233 234 235 236 237 238 239 240 241 244 243 242 2 1 280 3 279 278 259 260 261 262 270 269 268 267 137 136 135 134 133 132 131 20 19 18 17 16 271 272 273 274 275 276 277 4 5 6 7 8 9 10 11 12 15 13 14 24 23 25 22 26 27 28 29 126 127 128 21 130 129 154 155 153 156 152 151 177 176 160 159 158 157 119 120 121 122 123 124 125 30 31 32 33 34 35 36 37 38 39 40 41 42 43 60 61 118 117 115 114 113 116 86 85 65 66 64 63 62 59 44 45 46 47 48 49 50 51 52 53 54 55 56 57 58 68 69 67 70 71 72 73 74 76 75 77 78 79 81 80 93 94 95 96 97 98 99 101 100 168 167 166 171 172 170 169 102 103 92 91 90 109 89 82 83 84 87 88 112 111 110 108 104 105 107 106 173 174 175 161 162 163 164 165 188 189 190 191 192 193 186 187 185 184 183 182 181 180 179 178 150 149 148 147 146 145 199 198 197 194 195 196 201 202 200 144 143 142 141 140 139 138 266 265 264 263 258 257 256 255 254 253 252 208 209 210 207 206 205 204 203 213 212 211 214 215 216 217 218 219 220 221 222 223 224 225 226 227 228 229 
EOF